1 10 30
1233
  1.1   0.5  48.9 13395.9   0.0
  0.3 8037.5 110.3
  0.2 6067.0  83.3
  0.3 7306.9 100.3
  0.4 9498.7 130.4
  0.2 3921.0  53.8
  0.4 10712.9 147.0
  0.2 3692.0  50.7
  0.3 7279.3  99.9
  0.2 4201.1  57.7
  0.4 10529.4 144.5
 1217
 1228
 1369
 1345
 1059
 1475
 1407
 1235
 1043
 1439
 1259
  883
  510
 1184
  712
  862
 1320
  637
  956
 1176
 1459
 1440
 1037
  680
 1109
 1492
 1173
 1180
  990
  869
